! Checksum: AqoLYrZWdg8Sbfsv6CpyQg
! Title: AdGuard URL Tracking filter (Optimized)
! Description: Filter that enhances privacy by removing tracking parameters from URLs.
! Version: 2.0.2.34
! TimeUpdated: 2022-04-05T11:30:50+00:00
! Expires: 4 days (update frequency)
$removeparam=adfrom
$removeparam=nx_source
$removeparam=_zucks_suid
$removeparam=cmpid
$removeparam=asgtbndr
$removeparam=guccounter
$removeparam=guce_referrer
$removeparam=guce_referrer_sig
$removeparam=_openstat
$removeparam=action_object_map
$removeparam=action_ref_map
$removeparam=action_type_map
$removeparam=fb_action_ids
$removeparam=fb_action_types
$removeparam=fb_comment_id
$removeparam=fb_ref
$removeparam=fb_source
$removeparam=fbclid
$removeparam=xtor
$removeparam=utm_campaign
$removeparam=utm_channel
$removeparam=utm_cid
$removeparam=utm_content
$removeparam=utm_id
$removeparam=utm_medium
$removeparam=utm_name
$removeparam=utm_place
$removeparam=utm_pubreferrer
$removeparam=utm_reader
$removeparam=utm_referrer
$removeparam=utm_serial
$removeparam=utm_social
$removeparam=utm_social-type
$removeparam=utm_source
$removeparam=utm_swu
$removeparam=utm_term
$removeparam=utm_userid
$removeparam=utm_viz_id
$removeparam=utm_product
$removeparam=utm_campaignid
$removeparam=utm_ad
$removeparam=utm_brand
$removeparam=utm_emcid
$removeparam=utm_emmid
$removeparam=utm_umguk
$removeparam=gbraid
$removeparam=wbraid
$removeparam=gclsrc
$removeparam=gclid
$removeparam=yclid
$removeparam=dpg_source
$removeparam=dpg_campaign
$removeparam=dpg_medium
$removeparam=dpg_content
$removeparam=admitad_uid
$removeparam=gps_adid
$removeparam=unicorn_click_id
$removeparam=adjust_creative
$removeparam=adjust_tracker_limit
$removeparam=adjust_tracker
$removeparam=adjust_adgroup
$removeparam=adjust_campaign
$removeparam=bsft_clkid
$removeparam=bsft_eid
$removeparam=bsft_mid
$removeparam=bsft_uid
$removeparam=bsft_aaid
$removeparam=bsft_ek
$removeparam=mtm_campaign
$removeparam=mtm_cid
$removeparam=mtm_content
$removeparam=mtm_group
$removeparam=mtm_keyword
$removeparam=mtm_medium
$removeparam=mtm_placement
$removeparam=mtm_source
$removeparam=pk_campaign
$removeparam=pk_medium
$removeparam=pk_source
$removeparam=_branch_match_id
$removeparam=vc_lpp
$removeparam=ml_subscriber
$removeparam=ml_subscriber_hash
$removeparam=rb_clickid
$removeparam=oly_anon_id
$removeparam=oly_enc_id
$removeparam=ebisAdID
$removeparam=irgwc
$removeparam=fbclid
||api.cxense.com/public/widget/data?json=$script,removeparam=usi
||api.cxense.com/public/widget/data?json=$script,removeparam=widgetId
||lp.sophos.com^$removeparam=elqTrackId
||player.theplatform.com^$removeparam=playeranalytics
||player.theplatform.com^$removeparam=targetedlink
||gearbest.com^$removeparam=lkid
||gearbest.com^$removeparam=cid
||zalando.$removeparam=wmc
||zalando.$removeparam=/^cd\d+/
||zalando.$removeparam=wt_cd
||zalando.$removeparam=tm_hem
||iguru.gr^$removeparam=_unique_id
||iguru.gr^$removeparam=feed_id
||quora.com/qemail/tc?$removeparam=al_imp
||quora.com/qemail/tc?$removeparam=uid
||humblebundle.com^$removeparam=hmb_medium
||humblebundle.com^$removeparam=hmb_campaign
||humblebundle.com^$removeparam=hmb_source
||humblebundle.com^$removeparam=mcID
||humblebundle.com^$removeparam=linkID
||netkeiba.com^$removeparam=rf
||services.addons.mozilla.org^$removeparam=telemetry-client-id
||versioncheck.addons.mozilla.org^$xmlhttprequest,removeparam=appID
||download.mozilla.org^$removeparam=attribution_sig
||download.mozilla.org^$removeparam=attribution_code
||nextgov.com^$removeparam=oref
||defenseone.com^$removeparam=oref
||ozon.ru^$removeparam=asb2
||wizcase.com/?$removeparam=pageview_id
||wizcase.com/?$removeparam=clickout_id
||wizcase.com/?$removeparam=vid
||microsoft.msafflnk.net^$removeparam=sharedid
||microsoft.msafflnk.net^$removeparam=/^subid/
||ojrq.net/p/$removeparam=cid
||click.linksynergy.com/fs-bin/click?id=$removeparam=u1
||click.linksynergy.com/fs-bin/click?id=$removeparam=u2
||open.spotify.com^$removeparam=si
||go.mysku.ru^$removeparam=~r
||apple.com^$removeparam=ct
||apple.com^$removeparam=pt
$removeparam=ActionID,domain=otto.de|ottoversand.at
$removeparam=AffiliateID,domain=otto.de|ottoversand.at
$removeparam=campid,domain=otto.de|ottoversand.at
||search.naver.com/p/crd/rd$removeparam=i
||search.naver.com/p/crd/rd$removeparam=px
||search.naver.com/p/crd/rd$removeparam=py
||search.naver.com/p/crd/rd$removeparam=sx
||search.naver.com/p/crd/rd$removeparam=sy
||search.naver.com/p/crd/rd$removeparam=p
||search.naver.com/p/crd/rd$removeparam=s
||search.naver.com/p/crd/rd$removeparam=time
||buzzfeednews.com^$removeparam=ref
||goodreads.com^$removeparam=ref
||journal.tinkoff.ru$removeparam=mindbox-click-id
||coconala.com^$removeparam=ref
||coconala.com^$removeparam=ref_kind
||coconala.com^$removeparam=ref_no
$domain=atlanticcouncil.org|digikey.com,removeparam=/^mkt_tok/
||xkcd.com^$removeparam=trk
||video.laxd.com^$removeparam=ref
||msn.com^$removeparam=pc
||approach.yahoo.co.jp^$removeparam=code
||taobao.com^$removeparam=scm
||taobao.com^$removeparam=pvid
||taobao.com^$removeparam=utparam
||aliexpress.$removeparam=spm
||aliexpress.$removeparam=scm
||aliexpress.$removeparam=scm_id
||aliexpress.$removeparam=scm-url
||aliexpress.$removeparam=utparam
||aliexpress.$removeparam=aff_fcid
||aliexpress.$removeparam=terminal_id
||aliexpress.$removeparam=aff_trace_key
||aliexpress.$removeparam=aff_fsk
||aliexpress.$removeparam=pvid
||aliexpress.$removeparam=dp
||aliexpress.$removeparam=sk
||agoda.com^$removeparam=tag
||editor.flixier.com^$removeparam=/fx_(source|medium|campaign)/
||github.com/signup$removeparam=source
||github.com/signup$removeparam=/^ref_/
||tradingview.com^$removeparam=source
||api.cxense.com^$removeparam=/^cx_/
||api.cxense.com^$removeparam=/^pickup_list_click/
$removeparam=l-id,domain=nikki.ne.jp|rakuten.co.jp|rebates.jp
||rakuten.co.jp^$removeparam=scid
||azby.fmworld.net/cgi-bin/common/rd.cgi?$removeparam=affitest
||azby.fmworld.net^$removeparam=mc_pc
||toku.yahoo.co.jp^$removeparam=fr
||nikkei.com^$removeparam=i_cid
||nikkei.com^$removeparam=n_cid
||nikkeibp.co.jp^$removeparam=i_cid
||cyberlink.com^$removeparam=affid
||zestradar.com^$removeparam=adclid
||hit.gemius.pl/hitredir$removeparam=id
||hit.gemius.pl/hitredir$removeparam=extra
||adorama.com^$removeparam=obem
||adorama.com^$removeparam=bc_pid
||adjust.com^$removeparam=adgroup
||tiktok.com^$removeparam=share_app_id
||tiktok.com^$removeparam=share_author_id
||tiktok.com^$removeparam=tt_from
||reddit.app.link^$removeparam=adblock
||reddit.app.link^$removeparam=compact_view
||reddit.app.link^$removeparam=dnt
||reddit.app.link^$removeparam=geoip_country
||reddit.app.link^$removeparam=referrer_domain
||reddit.app.link^$removeparam=referrer_url
||dmkt-sp.jp^$removeparam=impressionId
||dmm.co.jp^$removeparam=dmmref
||dmm.co.jp^$removeparam=i3_ord
||dmm.co.jp^$removeparam=i3_ref
||imdb.com^$removeparam=ref_
||livedoor.biz^$removeparam=ref
||reddit.com^$removeparam=_branch_referrer
||reddit.com^$removeparam=post_fullname
||adj.st^$removeparam=CollectionId
||adj.st^$removeparam=adjust_deeplink
||data.alexa.com/data/$xmlhttprequest,removeparam=/cdt|ref/
||comodo.com^$removeparam=track
||comodo.com^$removeparam=af
||link.coupang.com^$removeparam=lptag
||wuzhuiso.com^$removeparam=src
||nordvpn.com^$removeparam=data1
||upgrad.com^$removeparam=UTM_MEDIUM
||adweek.com^$removeparam=traffic_source
$removeparam=aid,domain=adguard-vpn.com|adguard-dns.com|adguard.com
||kitbag.com^$removeparam=_ref
||kitbag.com^$removeparam=ab
||web.vstat.info$removeparam=guid
||web.vstat.info$removeparam=user_agent
||start.pm.by^$removeparam=adtag
||mail.ru^$removeparam=oprtrack
||redhotpawn.com^$removeparam=cbqsid
||reddit.com^$removeparam=correlation_id
||reddit.com^$removeparam=ref_campaign
||reddit.com^$removeparam=ref_source
||reddit.com^$removeparam=ref
||trendyol.com^$removeparam=tyutm_source
||trendyol.com^$removeparam=tyutm_medium
||trendyol.com^$removeparam=tyutm_campaign
||cc.loginfra.com/cc$removeparam=a
||cc.loginfra.com/cc$removeparam=bw
||cc.loginfra.com/cc$removeparam=px
||cc.loginfra.com/cc$removeparam=py
||cc.loginfra.com/cc$removeparam=sx
||cc.loginfra.com/cc$removeparam=sy
||cc.loginfra.com/cc$removeparam=nsc
||mein.onlinekonto.de^$removeparam=ref
||dengekionline.com^$removeparam=osusume_banner
$removeparam=spm,domain=aliyun.com|sohu.com
||aliyun.com^$removeparam=scm
$removeparam=dt_dapp,domain=douban.com|163.com
||douban.com^$removeparam=dt_platform
||listelerim.hepsiburada.com^$removeparam=af_ad
||listelerim.hepsiburada.com^$removeparam=af_adset
||listelerim.hepsiburada.com^$removeparam=af_force_deeplink
||listelerim.hepsiburada.com^$removeparam=pid
||listelerim.hepsiburada.com^$removeparam=c
||listelerim.hepsiburada.com^$removeparam=is_retargeting
||listelerim.hepsiburada.com^$removeparam=shortlink
||play.google.com/store/$removeparam=pcampaignid
||cyber-ad01.cc^$removeparam=ip
||d-markets.net^$removeparam=ref
||coupang.com/*/products/$removeparam=q
||coupang.com/*/products/$removeparam=searchId
||coupang.com^$removeparam=wRef
||coupang.com^$removeparam=traceid
||coupang.com^$removeparam=wTime
||coupang.com^$removeparam=wPcid
||weidian.com^$removeparam=/distributorid|wfr|ifr|share_relation/
||jasonsavard.com^$removeparam=/cUrl|ref/
$removeparam=a_aid,domain=expressvpn.com|vpnarea.com
||hog.*^$removeparam=ad
||lcs.naver.com/m?u=$removeparam=os
||lcs.naver.com/m?u=$removeparam=ln
||lcs.naver.com/m?u=$removeparam=sr
||lcs.naver.com/m?u=$removeparam=bw
||lcs.naver.com/m?u=$removeparam=bh
||lcs.naver.com/m?u=$removeparam=ls
||lcs.naver.com/m?u=$removeparam=navigationStart
||lcs.naver.com/m?u=$removeparam=requestStart
||lcs.naver.com/m?u=$removeparam=responseStart
||lcs.naver.com/m?u=$removeparam=responseEnd
||lcs.naver.com/m?u=$removeparam=domLoading
||lcs.naver.com/m?u=$removeparam=domInteractive
||lcs.naver.com/m?u=$removeparam=domContentLoadedEventStart
||lcs.naver.com/m?u=$removeparam=domContentLoadedEventEnd
||lcs.naver.com/m?u=$removeparam=domComplete
||lcs.naver.com/m?u=$removeparam=loadEventStart
||lcs.naver.com/m?u=$removeparam=loadEventEnd
||lcs.naver.com/m?u=$removeparam=pid
||lcs.naver.com/m?u=$removeparam=ts
||edx.org^$removeparam=source
||infoq.com^$removeparam=/topicPageSponsorship|^itm_/
||coupondunia.in^$removeparam=itm_source
||adshares.net^$removeparam=cid
||get.adobe.com^$removeparam=browser_type
||get.adobe.com^$removeparam=browser_dist
||get.adobe.com^$removeparam=type
||get.adobe.com^$removeparam=workflow
||get.adobe.com^$removeparam=promoid
||get.adobe.com^$removeparam=TRILIBIS_EMULATOR_UA
||ups.xplosion.de/ctx?event_id=$removeparam
||app.5-delivery.ru^$removeparam=c
||app.5-delivery.ru^$removeparam=pid
||voyeur-house.tv^$removeparam=clickid
||cht.com.tw^$removeparam=Source
||cht.com.tw^$removeparam=Identifier
||aufast.co^$removeparam=/^utm_/
||aufast.co^$removeparam=clickid
||iqbroker.com^$removeparam=afftrack
||iqbroker.com^$removeparam=clickid
||iqbroker.com^$removeparam=aff_model
||dailymotion.com/embed/video/*?ads_params=*&origin=$removeparam=ads_params
||dailymotion.com/embed/video/*?ads_params=*&origin=$removeparam=origin
||wired.co.uk^$removeparam=mbid
||wikihow.com^$removeparam=?utm_source
||kohls.com^$removeparam=CID
||instagram.com^$removeparam=igshid
||euronews.com^$removeparam=_ope
$removeparam=/^curator_clanid/,domain=steampowered.com|steamcommunity.com
||mediamarkt.com.tr^$removeparam=rbtc
||t.myvisualiq.net^$removeparam=~red
||uspoloassn.com^$removeparam=ref
||arcelik.com.tr^$removeparam=ref
||express.de^$removeparam=cb
||ksta.de^$removeparam=cb
||linkedin.com/authwall?$removeparam=trkInfo
||linkedin.com/authwall?$removeparam=originalReferer
||linkedin.com^$removeparam=/^trk/
||digikey.com^$removeparam=/^utm_cid/
||nicovideo.jp^$removeparam=cmnhd_ref
||nicovideo.jp^$removeparam=ref
||search.naver.com/search.naver$removeparam=tqi
||cc.naver.com/cc?a$removeparam=bw
||cc.naver.com/cc?a$removeparam=px
||cc.naver.com/cc?a$removeparam=py
||cc.naver.com/cc?a$removeparam=sx
||cc.naver.com/cc?a$removeparam=sy
||yandex.*/news/$removeparam=from
||yandex.*/news/$removeparam=persistent_id
||yandex.*/sport/$removeparam=persistent_id
||yandex.*/news/$removeparam=msid
||yandex.*/sport/$removeparam=msid
||yandex.*/news/$removeparam=mlid
||yandex.*/sport/$removeparam=mlid
||yandex.*/news/$removeparam=stid
||yandex.*/sport/$removeparam=stid
||yandex.*/images/$removeparam=source-serpid
||www.yandex.$removeparam=clid
://yandex.$removeparam=clid
://yandex.$removeparam=source
||www.baidu.com^$removeparam=rsv_pq
||www.baidu.com^$removeparam=rsv_t
||www.baidu.com/link?url=$removeparam=eqid
||cod.bitrec.com/topocentras-services/js/recs?$removeparam=visitorId
||cod.bitrec.com/topocentras-services/js/recs?$removeparam=externalVisitorId
||cod.bitrec.com/topocentras-services/js/recs?$removeparam=r
||play.google.*^$removeparam=referrer
||google.*/websearch$removeparam=visit_id
||google.*/search$removeparam=biw
||google.*/search$removeparam=bih
||google.*/search$removeparam=sa
||google.*/search$removeparam=source
||google.*/search$removeparam=aqs
||google.*/search$removeparam=sourceid
||google.*/search$removeparam=ei
||google.*/search$removeparam=gs_lcp
||www.ebay.$removeparam=_trkparms
||www.ebay.$removeparam=_trksid
||www.ebay.$removeparam=amdata
||www.ebay.$removeparam=mkrid
||www.ebay.$removeparam=campid
||amazon.*$removeparam=ref
||amazon.*$removeparam=ascsubtag
||amazon.*$removeparam=c
||amazon.*$removeparam=camp
||amazon.*$removeparam=creative
||amazon.*$removeparam=creativeASIN
||amazon.*$removeparam=dchild
||amazon.*$removeparam=field-lbr_brands_browse-bin
||amazon.*$removeparam=initialIssue
||amazon.*$removeparam=ingress
||amazon.*$removeparam=pd_rd_i
||amazon.*$removeparam=pd_rd_r
||amazon.*$removeparam=pd_rd_w
||amazon.*$removeparam=pd_rd_wg
||amazon.*$removeparam=pf_rd_i
||amazon.*$removeparam=pf_rd_m
||amazon.*$removeparam=pf_rd_p
||amazon.*$removeparam=pf_rd_r
||amazon.*$removeparam=pf_rd_s
||amazon.*$removeparam=pf_rd_t
||amazon.*$removeparam=pf_rd_w
||amazon.*$removeparam=plattr
||amazon.*$removeparam=qid
||amazon.*$removeparam=rdc
||amazon.*$removeparam=refRID
||amazon.*$removeparam=smid
||amazon.*$removeparam=tag
||amazon.*$removeparam=ts_id
||amazon.*$removeparam=visitId
||amazon.*$removeparam=vtr
||amazon.*/aa$removeparam=bitCampaignCode
||amazon.*/dp/$removeparam=tag
||amazon.*/hz/contact-us/csp$removeparam=/entries/
||amazon.*/hz/contact-us/csp$removeparam=/Version/
||amazon.*/hz/contact-us/csp$removeparam=from
||amazon.*/hz/contact-us/csp$removeparam=source
||amazon.*/message-us$removeparam=muClientName
||app.mi.com/download/*?id=$removeparam=ref
||app.mi.com/download/*?id=$removeparam=nonce
||app.mi.com/download/*?id=$removeparam=appClientId
||app.mi.com/download/*?id=$removeparam=appSignature
||mp.weixin.qq.com^$removeparam=chksm
||mp.weixin.qq.com^$removeparam=key
||mp.weixin.qq.com^$removeparam=uin
||mp.weixin.qq.com^$removeparam=devicetype
||mp.weixin.qq.com^$removeparam=exportkey
||mp.weixin.qq.com^$removeparam=mpshare
||mp.weixin.qq.com^$removeparam=scene
||mp.weixin.qq.com^$removeparam=srcid
||mp.weixin.qq.com^$removeparam=nettype
||pixel.adsafeprotected.com/services/pub?$removeparam=slot
||pixel.adsafeprotected.com/services/pub?$removeparam=sessionId
||pixel.adsafeprotected.com/services/pub?$removeparam=anId
||pixel.adsafeprotected.com/services/pub?$removeparam=wr
||pixel.adsafeprotected.com/services/pub?$removeparam=sr
||pixel.adsafeprotected.com/services/pub?$removeparam=url
||cam4.com^$removeparam=act
||cam4.com^$removeparam=suid
||cam4.com^$removeparam=showSignupPopup
||bbc.com^$removeparam=ocid
||office.com^$removeparam=ocid
||twitter.com^$removeparam=ref_src
||twitter.com^$removeparam=ref_url
||zerkalo.io^$removeparam=tg
||zerkalo.io^$removeparam=vk
||microsoft.com^$removeparam=tduid
||microsoft.com^$removeparam=irclickid
||microsoft.com^$removeparam=ranEAID
||microsoft.com^$removeparam=ranSiteID
||microsoft.com^$removeparam=ocid
$removeparam=epi,domain=microsoft.com|xbox.com
||nbcume.sc.omtrdc.net/id?d_visid_ver=$removeparam=/mcorgid|mid|ts/,domain=nbcdfw.com
$removeparam=dclid
||trendyol.com^$removeparam=_ga
||trendyol.com^$removeparam=utm_subaff
||duda.co^$removeparam=irclickid
||marktjagd.de^$removeparam=client
||kaspersky.com^$removeparam=icid
||coursera.org^$removeparam=siteID
||mag2.com^$removeparam=trflg
||dailymail.co.uk^$removeparam=ito
||hepsiburada.com^$removeparam=wt_af
||mioga.de^$removeparam=pl
||mioga.de^$removeparam=idealoid
||ejoker.de^$removeparam=sPartner
||ejoker.de^$removeparam=idealoid
||gmx.*/logoutlounge$removeparam=p
||web.de/logoutlounge$removeparam=p
||gmx.*^$removeparam=mc
||web.de^$removeparam=mc
||lotto.gmx.*^$removeparam=partnerId
||lotto.gmx.*^$removeparam=advertisementId
||lotto.web.de^$removeparam=partnerId
||lotto.web.de^$removeparam=advertisementId
||shopping.gmx.*^$removeparam=origin
||shopping.web.de^$removeparam=origin
||ad.doubleclick.net/ddm/trackclk/$removeparam=/^dc_trk_/
||alza.de/*.htm$removeparam=kampan
||cosse.de^$removeparam=referer
||idealo.de/*.html$removeparam=offerKey
||idealo.de/*.html$removeparam=offerListId
||marketing.net.idealo-partner.com^$removeparam=smc2
||marketing.net.idealo-partner.com^$removeparam=smc5
||media01.eu/set.aspx$removeparam=trackid
||netgames.de^$removeparam=refID
||www.alternate.de^$removeparam=partner
||www.galaxus.de^$removeparam=pcscpId
||marketing.net.idealo-partner.com^$removeparam=amc
||www.lidl.de^$removeparam=msktc
||www.pricezilla.de^$removeparam=bid
||boomstore.de*.html$removeparam=campaign
||www.alternate.de^$removeparam=campaign
||cosse.de^$removeparam=sPartner
||www.technikdirekt.de^$removeparam=sPartner
||www.hitseller.de^$removeparam=sPartner
||galaxus.de^$removeparam=idealoid
||www.technikdirekt.de^$removeparam=idealoid
||netgames.de^$removeparam=idealoid
||www.alternate.de^$removeparam=idealoid
||www.electronic4you.de^$removeparam=idealoid
||www.hitseller.de^$removeparam=idealoid
||www.hitseller.de^$removeparam=etcc_cmp
||marketing.net.idealo-partner.com^$removeparam=etcc_cmp
||www.hitseller.de^$removeparam=etcc_med
||marketing.net.idealo-partner.com^$removeparam=etcc_med
||www.hitseller.de^$removeparam=etcc_produkt
||marketing.net.idealo-partner.com^$removeparam=etcc_produkt
||visit.digidip.net^$removeparam=/^(ppref|ref|pid)=/
||ad.admitad.com^$removeparam=/^subid/
||mvideo.ru^$removeparam=/^(_requestid|reff)=/
||nytimes.com^$removeparam=impression_id
||websearch.rakuten.co.jp/Web?$removeparam=ref
||rakuten.co.jp^*&trflg=$removeparam=trflg
||search.yahoo.co.jp^$removeparam=fr
||daraz.*$removeparam=/spm=|scm=|from=|keyori=|sugg=|search=|mp=|c=|^abtest|^abbucket|pos=|themeID=|algArgs=|clickTrackInfo=|acm=|item_id=|version=|up_id=|pvid=/
||bilibili.com^$removeparam=from
||bilibili.com^$removeparam=seid
||bilibili.com^$removeparam=share_source
||bilibili.com^$removeparam=spm_id_from
||bilibili.com^$removeparam=from_spm_id
||bilibili.com^$removeparam=share_medium
||bilibili.com^$removeparam=share_plat
||bilibili.com^$removeparam=share_session_id
||bilibili.com^$removeparam=share_source
||bilibili.com^$removeparam=share_tag
||bilibili.com^$removeparam=timestamp
||bilibili.com^$removeparam=unique_k
||search.bilibili.com^$removeparam=from_source
||weibo.*^$removeparam=weibo_id
||weibo.*^$removeparam=dt_dapp
!+ PLATFORM(ext_chromium, ext_ff, ext_opera)
@@||userscript.zone^$removeparam=utm_campaign
@@||data.amazon.*/api/marketplaces/*/cart/carts/retail/items$removeparam=ref
@@||tix.axs.com^$removeparam
@@/mediaserver/*$removeparam,domain=ramtrucks.com|chrysler.com|fiatusa.com|alfaromeousa.com|jeep.com|dodge.com
@@||dkbs.sabio.de/sabio/services/$removeparam
@@||sendgb.com/*/?utm_source=$removeparam=utm_source
@@||img*.nga$removeparam=cmpid
@@||mywot.com/*/confirmNewEmail/$removeparam
@@||plex.tv/api/v*/users/*?utm_source=$removeparam=utm_source,domain=watch.plex.tv
@@/embed/comments^$removeparam,~third-party,domain=avclub.com|clickhole.com|deadspin.com|gizmodo.com|jalopnik.com|jezebel.com|kotaku.com|lifehacker.com|splinternews.com|theinventory.com|theonion.com|theroot.com|thetakeout.com|sportskeeda.com
@@||urldefense.com^$removeparam
@@||cdn.privatehost.com/videos*/$removeparam
@@||rightnowtech.com/engagement/api/consumer/nvidia/*/requestEngagement?pool=$removeparam
@@||insurancexblog.blogspot.com/?utm_source=$removeparam=utm_source
@@||gizmodo.com/embed/comments/$removeparam
@@||toptechtalk.xyz/?utm_source=$removeparam=utm_source
@@||kotaku.com/embed/comments$removeparam
@@||lanacion.com.ar/*module$removeparam=utm_source
@@||t.send.vt.edu/r/?id=$removeparam=utm_source
@@||t.send.vt.edu/r/?id=$removeparam=utm_medium
@@||t.send.vt.edu/r/?id=$removeparam=utm_campaign
@@||fakt.pl/*&srcc=ucs$removeparam
@@||przegladsportowy.pl/*&srcc=ucs$removeparam
@@||auto-swiat.pl/*&srcc=ucs$removeparam
@@||komputerswiat.pl/*&srcc=ucs$removeparam
@@||noizz.pl/*&srcc=ucs$removeparam
@@||plejada.pl/*&srcc=ucs$removeparam
@@||medonet.pl/*&srcc=ucs$removeparam
@@||businessinsider.com.pl/*&srcc=ucs$removeparam
@@||onet.pl/?utm_source=$removeparam